* Problem:    b-ball-prescaled
* Class:      LP
* Rows:       30
* Columns:    111
* Non-zeros:  220
* Format:     Free MPS
*
NAME b-ball-prescaled
ROWS
 N R0000000
 E R0000001
 E R0000002
 E R0000003
 E R0000004
 E R0000005
 E R0000006
 E R0000007
 E R0000008
 E R0000009
 E R0000010
 E R0000011
 E R0000012
 E R0000013
 E R0000014
 E R0000015
 E R0000016
 E R0000017
 E R0000018
 E R0000019
 E R0000020
 E R0000021
 E R0000022
 E R0000023
 E R0000024
 E R0000025
 E R0000026
 E R0000027
 E R0000028
 E R0000029
 E R0000030
COLUMNS
 c0 R0000000 -1 R0000030 1
 c0 R0000029 1 R0000028 1
 c0 R0000027 1 R0000026 1
 c0 R0000025 1 R0000024 1
 c0 R0000023 1 R0000022 1
 c0 R0000021 1 R0000020 1
 c1 R0000020 -1.1 R0000001 2.2
 c2 R0000021 -1.1 R0000002 2.2
 c3 R0000022 -1.1 R0000003 2.2
 c4 R0000023 -1.1 R0000004 2.2
 c5 R0000024 -1.1 R0000005 2.2
 c6 R0000025 -1.1 R0000006 2.2
 c7 R0000026 -1.1 R0000007 2.2
 c8 R0000027 -1.1 R0000008 2.2
 c9 R0000028 -1.1 R0000009 2.2
 c10 R0000029 -1.1 R0000010 2.2
 c11 R0000030 -3.16227766 R0000011 6.3245553203
 c12 R0000012 2.2 R0000001 -2.2
 c13 R0000013 2 R0000001 -2
 c14 R0000014 2 R0000001 -2
 c15 R0000015 2 R0000001 -2
 c16 R0000016 2 R0000001 -2
 c17 R0000017 2 R0000001 -2
 c18 R0000018 2 R0000001 -2
 c19 R0000019 2 R0000001 -2
 c20 R0000012 2.2 R0000002 -2.2
 c21 R0000013 2 R0000002 -2
 c22 R0000014 2 R0000002 -2
 c23 R0000015 2 R0000002 -2
 c24 R0000016 2 R0000002 -2
 c25 R0000017 2 R0000002 -2
 c26 R0000018 2 R0000002 -2
 c27 R0000019 2 R0000002 -2
 c28 R0000012 2.2 R0000003 -2.2
 c29 R0000013 2 R0000003 -2
 c30 R0000014 2 R0000003 -2
 c31 R0000015 2 R0000003 -2
 c32 R0000016 2 R0000003 -2
 c33 R0000017 2 R0000003 -2
 c34 R0000018 2 R0000003 -2
 c35 R0000019 2 R0000003 -2
 c36 R0000012 2.2 R0000004 -2.2
 c37 R0000013 2 R0000004 -2
 c38 R0000014 2 R0000004 -2
 c39 R0000015 2 R0000004 -2
 c40 R0000016 2 R0000004 -2
 c41 R0000017 2 R0000004 -2
 c42 R0000018 2 R0000004 -2
 c43 R0000019 2 R0000004 -2
 c44 R0000012 2.2 R0000005 -2.2
 c45 R0000013 2 R0000005 -2
 c46 R0000014 2 R0000005 -2
 c47 R0000015 2 R0000005 -2
 c48 R0000016 2 R0000005 -2
 c49 R0000017 2 R0000005 -2
 c50 R0000018 2 R0000005 -2
 c51 R0000019 2 R0000005 -2
 c52 R0000012 2.2 R0000006 -2.2
 c53 R0000013 2 R0000006 -2
 c54 R0000014 2 R0000006 -2
 c55 R0000015 2 R0000006 -2
 c56 R0000016 2 R0000006 -2
 c57 R0000017 2 R0000006 -2
 c58 R0000018 2 R0000006 -2
 c59 R0000019 2 R0000006 -2
 c60 R0000012 2.2 R0000007 -2.2
 c61 R0000013 2 R0000007 -2
 c62 R0000014 2 R0000007 -2
 c63 R0000015 2 R0000007 -2
 c64 R0000016 2 R0000007 -2
 c65 R0000017 2 R0000007 -2
 c66 R0000018 2 R0000007 -2
 c67 R0000019 2 R0000007 -2
 c68 R0000012 2.2 R0000008 -2.2
 c69 R0000013 2 R0000008 -2
 c70 R0000014 2 R0000008 -2
 c71 R0000015 2 R0000008 -2
 c72 R0000016 2 R0000008 -2
 c73 R0000017 2 R0000008 -2
 c74 R0000018 2 R0000008 -2
 c75 R0000019 2 R0000008 -2
 c76 R0000012 2.2 R0000009 -2.2
 c77 R0000013 2 R0000009 -2
 c78 R0000014 2 R0000009 -2
 c79 R0000015 2 R0000009 -2
 c80 R0000016 2 R0000009 -2
 c81 R0000017 2 R0000009 -2
 c82 R0000018 2 R0000009 -2
 c83 R0000019 2 R0000009 -2
 c84 R0000012 2.2 R0000010 -2.2
 c85 R0000013 2 R0000010 -2
 c86 R0000014 2 R0000010 -2
 c87 R0000015 2 R0000010 -2
 c88 R0000016 2 R0000010 -2
 c89 R0000017 2 R0000010 -2
 c90 R0000018 2 R0000010 -2
 c91 R0000019 2 R0000010 -2
 c92 R0000012 6.3245553203 R0000011 -6.32455532
 c93 R0000013 2 R0000011 -2
 c94 R0000014 2 R0000011 -2
 c95 R0000015 2 R0000011 -2
 c96 R0000016 2 R0000011 -2
 c97 R0000017 2 R0000011 -2
 c98 R0000018 2 R0000011 -2
 c99 R0000019 2 R0000011 -2
 c100 R0000020 3.4785054262
 c101 R0000021 3.4785054262
 c102 R0000022 3.4785054262
 c103 R0000023 3.4785054262
 c104 R0000024 3.4785054262
 c105 R0000025 3.4785054262
 c106 R0000026 3.4785054262
 c107 R0000027 3.4785054262
 c108 R0000028 3.4785054262
 c109 R0000029 3.4785054262
 c110 R0000030 3.4785054262
RHS
 RHS1 R0000012 5 R0000013 5
 RHS1 R0000014 5 R0000015 5
 RHS1 R0000016 5 R0000017 5
 RHS1 R0000018 5 R0000019 5
BOUNDS
 UP BND1 c12 0.4545454545
 UP BND1 c13 0.5
 UP BND1 c14 0.5
 UP BND1 c15 0.5
 UP BND1 c16 0.5
 UP BND1 c17 0.5
 UP BND1 c18 0.5
 UP BND1 c19 0.5
 UP BND1 c20 0.4545454545
 UP BND1 c21 0.5
 UP BND1 c22 0.5
 UP BND1 c23 0.5
 UP BND1 c24 0.5
 UP BND1 c25 0.5
 UP BND1 c26 0.5
 UP BND1 c27 0.5
 UP BND1 c28 0.4545454545
 UP BND1 c29 0.5
 UP BND1 c30 0.5
 UP BND1 c31 0.5
 UP BND1 c32 0.5
 UP BND1 c33 0.5
 UP BND1 c34 0.5
 UP BND1 c35 0.5
 UP BND1 c36 0.4545454545
 UP BND1 c37 0.5
 UP BND1 c38 0.5
 UP BND1 c39 0.5
 UP BND1 c40 0.5
 UP BND1 c41 0.5
 UP BND1 c42 0.5
 UP BND1 c43 0.5
 UP BND1 c44 0.4545454545
 UP BND1 c45 0.5
 UP BND1 c46 0.5
 UP BND1 c47 0.5
 UP BND1 c48 0.5
 UP BND1 c49 0.5
 UP BND1 c50 0.5
 UP BND1 c51 0.5
 UP BND1 c52 0.4545454545
 UP BND1 c53 0.5
 UP BND1 c54 0.5
 UP BND1 c55 0.5
 UP BND1 c56 0.5
 UP BND1 c57 0.5
 UP BND1 c58 0.5
 UP BND1 c59 0.5
 UP BND1 c60 0.4545454545
 UP BND1 c61 0.5
 UP BND1 c62 0.5
 UP BND1 c63 0.5
 UP BND1 c64 0.5
 UP BND1 c65 0.5
 UP BND1 c66 0.5
 UP BND1 c67 0.5
 UP BND1 c68 0.4545454545
 UP BND1 c69 0.5
 UP BND1 c70 0.5
 UP BND1 c71 0.5
 UP BND1 c72 0.5
 UP BND1 c73 0.5
 UP BND1 c74 0.5
 UP BND1 c75 0.5
 UP BND1 c76 0.4545454545
 UP BND1 c77 0.5
 UP BND1 c78 0.5
 UP BND1 c79 0.5
 UP BND1 c80 0.5
 UP BND1 c81 0.5
 UP BND1 c82 0.5
 UP BND1 c83 0.5
 UP BND1 c84 0.4545454545
 UP BND1 c85 0.5
 UP BND1 c86 0.5
 UP BND1 c87 0.5
 UP BND1 c88 0.5
 UP BND1 c89 0.5
 UP BND1 c90 0.5
 UP BND1 c91 0.5
 UP BND1 c92 0.158113883
 UP BND1 c93 0.5
 UP BND1 c94 0.5
 UP BND1 c95 0.5
 UP BND1 c96 0.5
 UP BND1 c97 0.5
 UP BND1 c98 0.5
 UP BND1 c99 0.5
ENDATA
